41
Energy: -1.0064284
C          0.57922       -0.15795        1.34909
C          2.01691        0.35352        1.36523
C          2.29760        1.40137        0.28659
H          2.33115        0.95309       -0.71206
H          3.26239        1.90027        0.43798
H          1.52908        2.18306        0.28098
C          3.01541       -0.80092        1.40016
O          2.79294       -1.90223        1.88897
O          4.22866       -0.45404        0.87348
C          5.21340       -1.50286        0.93171
C          6.56526       -0.91413        0.51360
H          4.90080       -2.29700        0.24744
H          5.26754       -1.88914        1.95429
N          7.74868       -1.90876        0.47073
H          6.84376       -0.10980        1.20634
H          6.48238       -0.46717       -0.48514
C          7.48720       -3.02263       -0.54074
H          7.34035       -2.56888       -1.52459
H          6.59584       -3.57403       -0.23225
H          8.33476       -3.71114       -0.54844
C          7.99726       -2.52145        1.84860
H          7.09488       -3.04925        2.16590
H          8.24148       -1.71604        2.54634
H          8.81273       -3.24511        1.77897
C          8.98817       -1.07250        0.02839
C         10.27707       -1.86513       -0.02280
H          9.07681       -0.24554        0.74336
H          8.74732       -0.65702       -0.95756
C         11.42352       -0.97475       -0.48783
H         10.18801       -2.71466       -0.70568
H         10.51750       -2.26899        0.96497
S         12.95132       -1.86763       -0.46791
H         11.54103       -0.10516        0.16753
H         11.25646       -0.62193       -1.51103
O         13.89938       -0.87482       -0.95595
O         13.07399       -2.22667        0.94237
O         12.66736       -2.97745       -1.37351
H         -0.14870        0.65469        1.44430
H          0.37943       -0.89008        2.13873
Br         0.13517       -1.06515       -0.32474
Br         2.28707        1.25253        3.11983
