37
Energy: -23.1146990
C          0.70094       -0.08799        1.27492
C          2.13482        0.43856        1.30800
C          2.41603        1.49351        0.23979
H          2.45789        1.05246       -0.76153
H          3.37623        1.99711        0.40182
H          1.64156        2.26958        0.23528
C          3.13668       -0.70984        1.35060
O          2.89519       -1.81436        1.82943
O          4.36786       -0.37063        0.85235
C          5.31276       -1.44957        0.95370
C          6.71543       -1.00304        0.51610
H          4.95622       -2.26554        0.31822
H          5.34415       -1.77892        1.99703
N          7.77869       -2.13722        0.55465
H          7.07148       -0.19792        1.17053
H          6.69096       -0.61133       -0.50817
C          7.45220       -3.21839       -0.46351
H          7.43038       -2.76461       -1.45827
H          6.48143       -3.65412       -0.21781
H          8.20605       -4.00693       -0.40820
C          7.88833       -2.73451        1.95095
H          6.92724       -3.17671        2.22247
H          8.16099       -1.93838        2.64918
H          8.63508       -3.53050        1.95010
C          9.15082       -1.46254        0.17592
C         10.29393       -2.45082        0.11139
H          9.31900       -0.68848        0.93511
H          8.98510       -0.97997       -0.79563
C         11.56981       -1.66229       -0.13551
H         10.17842       -3.16258       -0.71159
H         10.42424       -3.00631        1.04376
H         -0.03729        0.71514        1.36961
H          0.50111       -0.82774        2.05796
Br         0.27943       -0.99120       -0.40738
Br         2.37323        1.32709        3.07290
O         11.41235       -0.44469       -0.41324
O         12.61731       -2.34901       -0.01782
