48
Energy: 1.6765256
C         -3.94454       -0.80083        0.16144
C         -2.68740       -0.02585       -0.22531
C         -1.41058       -0.59136        0.42520
N         -0.24789        0.09898        0.12179
C          1.02864       -0.28381        0.69810
H         -0.38374        1.07341       -0.12916
C          2.15658        0.33022       -0.12256
H          1.10583       -1.37618        0.71654
H          1.04740        0.07963        1.73134
C          3.54358       -0.00973        0.42775
H          1.99457        1.41159       -0.14450
H          2.06044       -0.02389       -1.15519
N          4.68709        0.72852       -0.32850
H          3.74412       -1.08371        0.33653
H          3.62756        0.27865        1.48198
C          4.56686        2.23952       -0.12551
H          4.65847        2.45014        0.94362
H          3.60493        2.58251       -0.50802
H          5.34708        2.74472       -0.69970
C          4.64494        0.39429       -1.82089
H          3.74799        0.84184       -2.25590
H          4.62851       -0.69403       -1.92968
H          5.52339        0.81488       -2.31287
C          6.05102        0.21162        0.25496
C          7.21433        1.12931       -0.11818
H          6.18804       -0.80899       -0.12045
H          5.93622        0.17558        1.34460
C          8.57652        0.52729        0.19346
H          7.12418        2.06810        0.44123
H          7.19604        1.38161       -1.18263
O         -1.39746       -1.57874        1.15500
S         11.29145        0.92030       -0.01021
O         11.36256        0.23199       -1.29651
O         11.27084        0.05346        1.16459
O         12.11216        2.12086        0.10921
H         -4.85696       -0.27217       -0.13553
H         -4.00027       -1.00245        1.23613
Br        -2.88640        1.79103        0.59102
Br        -4.06860       -2.54255       -0.71389
C         -2.53162        0.19106       -1.73373
H         -2.23146       -0.73194       -2.24139
H         -1.76343        0.93649       -1.97156
H         -3.46668        0.54105       -2.18581
C          9.65346        1.58623       -0.03594
H          9.59315        2.35183        0.74523
H          9.52628        2.08219       -1.00549
H          8.74919       -0.34972       -0.44135
H          8.60936        0.18334        1.23401
